%BLOCK LATTICE_CART
        3.7117000000         0.0000000000         0.0000000000
        0.0000000000         3.7117000000         0.0000000000
        0.0000000000         0.0000000000        15.0000000000
#FIX
%ENDBLOCK LATTICE_CART

%BLOCK POSITIONS_FRAC
Fe  0.000000000  0.000000000  0.300000000 # Fe1 % XAMP=0.2 YAMP=0.2 ZAMP=0.2 
Fe  0.500000000  0.500000000  0.300000000 # Fe2 % XAMP=0.2 YAMP=0.2 ZAMP=0.2
Se  0.000000000  0.500000000  0.231159067 # Se1 % XAMP=0.2 YAMP=0.2 ZAMP=0.2
Se  0.500000000  0.000000000  0.368840933 # Se2 % XAMP=0.2 YAMP=0.2 ZAMP=0.2
Li  0.000000000  0.500000000  0.368840933 # Li1 % ZAMP=1.0
Li  0.500000000  0.000000000  0.231159067 # Li2 % ZAMP=1.0
%ENDBLOCK POSITIONS_FRAC

#NFORM=1
#SLAB
#SLACK=0.25
#OVERLAP=0.1
#MINSEP=2.0
